
List of user-set options:

                                    Name   Value                used
                        file_print_level = 5                     yes
                   hessian_approximation = limited-memory        yes
                                  hsllib = /home/ggs24/packages/ThirdParty-HSL/.libs/libcoinhsl.so  yes
                           linear_solver = ma97                  yes
                                max_iter = 200                   yes
                             output_file = IPOPT.out             yes
                             print_level = 0                     yes
                      print_user_options = yes                   yes
                                      sb = yes                   yes
This is Ipopt version 3.14.7, running with linear solver ma97.

Number of nonzeros in equality constraint Jacobian...:       68
Number of nonzeros in inequality constraint Jacobian.:     8568
Number of nonzeros in Lagrangian Hessian.............:        0

Total number of variables............................:       17
                     variables with only lower bounds:        1
                variables with lower and upper bounds:        0
                     variables with only upper bounds:        0
Total number of equality constraints.................:        4
Total number of inequality constraints...............:      504
        inequality constraints with only lower bounds:        0
   inequality constraints with lower and upper bounds:      378
        inequality constraints with only upper bounds:      126

iter    objective    inf_pr   inf_du lg(mu)  ||d||  lg(rg) alpha_du alpha_pr  ls
   0  1.1289505e+01 4.46e-06 1.37e+00   0.0 0.00e+00    -  0.00e+00 0.00e+00   0
   1  1.1347761e+01 0.00e+00 6.21e-02  -2.3 5.83e-02    -  9.85e-01 1.00e+00f  1
   2  1.1314926e+01 4.44e-16 1.21e-02  -3.3 1.01e-01    -  9.93e-01 1.00e+00h  1
   3  1.1297229e+01 5.43e-04 1.31e-02  -3.3 6.98e-02    -  1.00e+00 7.54e-01h  1
   4  1.1298236e+01 0.00e+00 1.62e-03  -3.3 1.45e-02    -  1.00e+00 1.00e+00h  1
   5  1.1272056e+01 0.00e+00 2.78e-03  -4.5 3.16e-02    -  8.88e-01 8.29e-01h  1
   6  1.1255089e+01 8.06e-06 4.65e-03  -5.1 2.47e-02    -  9.95e-01 8.48e-01h  1
   7  1.1253389e+01 1.52e-05 3.05e-01  -5.5 1.62e-02    -  1.00e+00 5.86e-01h  1
   8  1.1253013e+01 7.59e-06 4.19e-01  -5.5 1.43e-02    -  4.32e-01 5.74e-01h  1
   9  1.1252935e+01 3.77e-06 8.45e-01  -5.5 2.62e-02    -  8.03e-01 3.99e-01h  1
iter    objective    inf_pr   inf_du lg(mu)  ||d||  lg(rg) alpha_du alpha_pr  ls
  10  1.1252804e+01 9.55e-06 3.20e-01  -6.3 2.35e-02    -  5.01e-01 6.02e-01h  1
  11  1.1252851e+01 8.88e-16 2.28e-01  -5.5 9.11e-03    -  8.88e-01 1.00e+00h  1
  12  1.1252785e+01 2.76e-07 4.93e-01  -6.2 5.48e-03    -  1.00e+00 6.74e-01h  1
  13  1.1252755e+01 3.45e-07 3.70e-02  -6.5 3.51e-03    -  9.18e-01 9.23e-01h  1
  14  1.1252750e+01 3.19e-07 9.82e-02  -7.0 2.09e-03    -  1.00e+00 7.36e-01h  1
  15  1.1252749e+01 9.09e-08 1.07e-01  -7.7 1.84e-03    -  1.00e+00 7.44e-01h  1
  16  1.1252749e+01 6.21e-09 8.43e-06  -8.4 4.29e-04    -  1.00e+00 9.58e-01h  1
  17  1.1252749e+01 6.65e-10 7.21e-07 -10.4 7.91e-05    -  1.00e+00 9.70e-01h  1
  18  1.1252749e+01 3.85e-12 1.16e-07 -11.0 2.17e-05    -  1.00e+00 1.00e+00h  1
  19  1.1252749e+01 0.00e+00 2.06e-08 -11.0 2.23e-06    -  1.00e+00 1.00e+00h  1
iter    objective    inf_pr   inf_du lg(mu)  ||d||  lg(rg) alpha_du alpha_pr  ls
  20  1.1252749e+01 0.00e+00 1.55e-10 -11.0 4.10e-08    -  1.00e+00 1.00e+00h  1

Number of Iterations....: 20

                                   (scaled)                 (unscaled)
Objective...............:   1.1252748829882432e+01    1.1252748829882432e+01
Dual infeasibility......:   1.5531044506023051e-10    1.5531044506023051e-10
Constraint violation....:   0.0000000000000000e+00    0.0000000000000000e+00
Variable bound violation:   0.0000000000000000e+00    0.0000000000000000e+00
Complementarity.........:   1.0000312991068177e-11    1.0000312991068177e-11
Overall NLP error.......:   1.5531044506023051e-10    1.5531044506023051e-10


Number of objective function evaluations             = 21
Number of objective gradient evaluations             = 21
Number of equality constraint evaluations            = 21
Number of inequality constraint evaluations          = 21
Number of equality constraint Jacobian evaluations   = 21
Number of inequality constraint Jacobian evaluations = 21
Number of Lagrangian Hessian evaluations             = 0
Total seconds in IPOPT                               = 0.376

EXIT: Optimal Solution Found.
